452,91
470,115
762,246
635,264
469,194
267,341
744,469
721,486
435,745
681,946
892,697
822,600
721,486
563,388
723,364
778,336
885,6
898,-21
892,115
918,369
1011,406
909,332
245,723
435,745
817,673
795,443
633,371
469,194
762,246
935,152
1020,160
822,600
893,618
947,599
918,369
795,443
744,469
1036,462
945,770
885,6
